c A SAT instance generated from a 3-CNF formula that had 65 clauses and 10 variables
p cnf 10 65
9 3 1 0
-9 -3 -4 0
2 -3 8 0
-8 -1 9 0
7 -4 2 0
-10 -4 6 0
-7 4 8 0
3 -7 -1 0
-6 1 -10 0
-4 -9 3 0
-9 8 -5 0
3 7 10 0
2 10 8 0
-4 9 -10 0
1 -7 -8 0
6 10 -1 0
10 8 -2 0
4 9 -5 0
-3 -10 -4 0
5 -9 -4 0
10 5 -4 0
-2 10 9 0
-2 -5 -3 0
-1 6 9 0
-3 -9 -1 0
-6 3 -2 0
10 -7 -1 0
-10 3 1 0
8 -1 -5 0
7 1 -6 0
6 7 -4 0
-9 -1 -10 0
7 8 1 0
-4 9 6 0
4 6 -1 0
-8 -4 2 0
-9 1 3 0
6 -3 -4 0
-1 -4 7 0
-6 8 5 0
8 10 1 0
5 1 4 0
10 9 -6 0
-2 -1 4 0
-8 5 -6 0
1 9 -6 0
3 -10 -5 0
3 1 -6 0
1 8 -3 0
-10 -4 7 0
10 -2 -7 0
-6 3 1 0
3 5 -9 0
-2 -7 -9 0
-4 -5 2 0
-4 -1 -10 0
-10 -2 4 0
4 2 3 0
-8 -3 -2 0
-3 5 -7 0
-1 3 -9 0
-1 4 2 0
-6 -4 9 0
-7 -8 1 0
9 -5 1 0
